0	167	143	80	188	133	178	28	92	36	84	
175	0	27	54	65	46	192	191	190	167	29	
141	136	0	101	66	143	182	141	151	129	65	
161	85	79	0	196	46	26	59	124	178	60	
121	188	158	132	0	108	113	107	197	51	119	
162	20	123	85	56	0	59	68	36	168	34	
183	165	101	197	143	120	0	120	191	130	114	
57	139	69	59	99	45	185	0	197	79	187	
28	103	61	141	155	110	146	80	0	73	178	
160	133	166	153	101	82	55	24	88	0	42	
131	47	200	162	118	101	143	175	95	24	0	
